Maximize

7 y_0 + 9 y_1 + 5 y_2


Subject To

a0: x_0_0 + x_0_1 + x_0_2 <= 10
a1: x_1_0 + x_1_1 + x_1_2 <= 5
a2: x_2_0 + x_2_1 + x_2_2 <= 8
a3: x_3_0 + x_3_1 + x_3_2 <= 2
a4: x_4_0 + x_4_1 + x_4_2 <= 5
b0: y_0 = 1 -> x_0_0 + x_1_0 + x_2_0 + x_3_0 + x_4_0 > 0
b1: y_1 = 1 -> x_0_1 + x_1_1 + x_2_1 + x_3_1 + x_4_1 > 0
b2: y_2 = 1 -> x_0_2 + x_1_2 + x_2_2 + x_3_2 + x_4_2 > 0
z0: - x_0_0 + 0 x$_0 + 2 x$_1 = 0
z1: x$_0  + x$_1 = 1
z2: - x_0_1 + 0 x$_2 + 8 x$_3 = 0
z3: x$_2  + x$_3 = 1
z4: - x_0_2 + 0 x$_4 + 2 x$_5 = 0
z5: x$_4  + x$_5 = 1
z6: - x_1_0 + 0 x$_6 + 0 x$_7 = 0
z7: x$_6  + x$_7 = 1
z8: - x_1_1 + 0 x$_8 + 4 x$_9 = 0
z9: x$_8  + x$_9 = 1
z10: - x_1_2 + 0 x$_10 + 0 x$_11 = 0
z11: x$_10  + x$_11 = 1
z12: - x_2_0 + 0 x$_12 + 5 x$_13 = 0
z13: x$_12  + x$_13 = 1
z14: - x_2_1 + 0 x$_14 + 3 x$_15 = 0
z15: x$_14  + x$_15 = 1
z16: - x_2_2 + 0 x$_16 + 0 x$_17 = 0
z17: x$_16  + x$_17 = 1
z18: - x_3_0 + 0 x$_18 + 2 x$_19 = 0
z19: x$_18  + x$_19 = 1
z20: - x_3_1 + 0 x$_20 + 8 x$_21 = 0
z21: x$_20  + x$_21 = 1
z22: - x_3_2 + 0 x$_22 + 2 x$_23 = 0
z23: x$_22  + x$_23 = 1
z24: - x_4_0 + 0 x$_24 + 0 x$_25 = 0
z25: x$_24  + x$_25 = 1
z26: - x_4_1 + 0 x$_26 + 0 x$_27 = 0
z27: x$_26  + x$_27 = 1
z28: - x_4_2 + 0 x$_28 + 7 x$_29 = 0
z29: x$_28  + x$_29 = 1



Binary

x$_0 x$_1 x$_2 x$_3 x$_4 x$_5 x$_6 x$_7 x$_8 x$_9 x$_10 x$_11 x$_12 x$_13 x$_14 x$_15 x$_16 x$_17 x$_18 x$_19 x$_20 x$_21 x$_22 x$_23 x$_24 x$_25 x$_26 x$_27 x$_28 x$_29y_0 y_1 y_2


General

 x_0_0 x_0_1 x_0_2 x_1_0 x_1_1 x_1_2 x_2_0 x_2_1 x_2_2 x_3_0 x_3_1 x_3_2 x_4_0 x_4_1 x_4_2



End
